1427 1694
4401 3315
1409 3969
368 4576
1676 4061
4696 2744
3776 1077
4254 1520
1897 1943
3849 765
3131 4650
4641 976
1759 535
673 875
1584 2616
3500 2975
2266 4071
590 2220
4918 323
4356 848
2229 1640
4605 3177
4696 2220
2385 1492
1188 240
3472 4079
4862 3269
2173 3103
1059 810
3269 4724
27 4493
4898 4825
3784 3867
4097 4309
4576 2136
2790 2946
4282 2385
4069 2946
1160 4502
4981 2587
2983 2458
2421 3876
2762 3526
801 2311
2743 2550
3563 1813
4751 3968
4667 3452
3820 358
3047 3738
